62      4       
23      14      22      15      
0       0       0       0       0       3       2       3       4       
7       0       0       7       0       3       6       52      58      
6       0       0       0       7       3       10      11      12      
9       0       0       0       2       2       5       19      
9       7       0       0       0       1       14      
2       0       8       0       0       3       7       21      23      
3       0       10      0       0       3       8       9       26      
10      2       0       0       0       1       16      
8       0       0       6       0       2       13      20      
9       0       0       2       0       2       31      61      
4       0       0       3       0       2       18      50      
6       4       0       0       0       2       17      35      
2       0       0       2       0       2       15      36      
7       0       0       3       0       1       32      
1       4       0       0       0       2       37      54      
5       8       0       0       0       2       22      33      
1       8       0       0       0       2       30      42      
3       0       0       0       9       1       29      
6       0       0       6       0       1       34      
5       0       0       0       3       2       27      49      
7       9       0       0       0       1       45      
9       7       0       0       0       2       24      28      
10      0       0       0       10      3       25      38      39      
1       0       8       0       0       2       34      41      
7       0       4       0       0       2       29      51      
7       0       0       6       0       2       40      42      
10      0       0       6       0       1       45      
5       9       0       0       0       1       51      
5       0       4       0       0       1       35      
10      0       0       9       0       1       57      
9       0       0       7       0       1       46      
3       0       5       0       0       1       56      
8       0       0       6       0       2       45      50      
10      0       9       0       0       1       43      
2       0       0       0       1       1       48      
4       0       0       0       8       3       40      41      56      
10      0       0       9       0       1       41      
7       0       0       0       5       1       47      
7       0       6       0       0       1       53      
5       0       0       0       4       1       44      
8       0       7       0       0       2       47      49      
2       0       0       1       0       1       48      
5       0       0       0       9       1       48      
1       0       0       0       1       1       59      
7       0       0       0       3       2       51      53      
10      0       3       0       0       1       47      
8       0       0       10      0       1       55      
10      0       5       0       0       1       56      
6       0       0       3       0       1       60      
8       0       0       4       0       1       55      
6       0       0       9       0       2       57      61      
6       10      0       0       0       1       55      
10      0       0       8       0       1       61      
9       0       0       0       2       1       57      
6       0       0       6       0       1       60      
9       0       0       0       4       1       59      
7       0       6       0       0       1       60      
10      0       0       5       0       1       59      
6       0       0       0       3       1       62      
9       0       0       0       9       1       62      
9       0       0       0       2       1       62      
0       0       0       0       0       0       